Problem:    
Rows:       4
Columns:    6 (6 integer, 6 binary)
Non-zeros:  14
Status:     INTEGER OPTIMAL
Objective:  score = 24 (MAXimum)

   No.   Row name        Activity     Lower bound   Upper bound
------ ------------    ------------- ------------- -------------
     1 index_0                     3             0               
     2 index_1                     1             0               
     3 index_2                     0             0               
     4 length                     22                          43 

   No. Column name       Activity     Lower bound   Upper bound
------ ------------    ------------- ------------- -------------
     1 c0           *              1             0             1 
     2 c1           *              1             0             1 
     3 c2           *              1             0             1 
     4 s0           *              0             0             1 
     5 s1           *              1             0             1 
     6 s2           *              0             0             1 

Integer feasibility conditions:

KKT.PE: max.abs.err = 0.00e+00 on row 0
        max.rel.err = 0.00e+00 on row 0
        High quality

KKT.PB: max.abs.err = 0.00e+00 on row 0
        max.rel.err = 0.00e+00 on row 0
        High quality

End of output
